1 1 -2 0
1 1 3 0
1 -1 4 0
1 2 -3 0
1 -2 -1 0
1 -2 5 0
1 2 4 0
1 6 -7 0
1 -6 -8 0
1 -6 9 0
1 6 -10 0
1 -6 11 0
1 -6 5 0
1 -12 -7 0
1 12 8 0
1 12 -9 0
1 -12 -10 0
1 -12 -11 0
1 -12 -5 0
1 -3 -13 0
1 3 12 0
1 -3 -14 0
1 -3 15 0
1 -3 -4 0
1 -4 -16 0
1 -4 -17 0
1 -4 -2 0
1 -4 -3 0
1 -4 15 0
1 -4 -18 0
1 4 -6 0
1 -4 1 0
1 -9 16 0
1 -9 -19 0
1 9 -20 0
1 9 2 0
1 9 -21 0
1 5 20 0
1 -5 -12 0
1 5 2 0
1 -5 15 0
1 -5 6 0
1 -5 1 0
1 5 22 0
1 23 8 0
1 23 17 0
1 23 -24 0
1 23 4 0
1 -17 -20 0
1 17 3 0
1 17 -10 0
1 -17 11 0
1 17 -23 0
1 18 -8 0
1 -18 13 0
1 -18 25 0
1 -18 -3 0
1 -18 10 0
1 18 11 0
1 18 -26 0
1 -13 -7 0
1 -13 19 0
1 13 25 0
1 13 -3 0
1 13 -11 0
1 -13 26 0
1 -13 -4 0
1 -11 27 0
1 -11 -8 0
1 11 13 0
1 -11 -17 0
1 11 28 0
1 11 29 0
1 -11 -23 0
1 -8 27 0
1 -8 30 0
1 8 12 0
1 -8 28 0
1 8 11 0
1 -8 -18 0
1 8 -6 0
1 10 7 0
1 10 -31 0
1 10 17 0
1 10 12 0
1 -10 18 0
1 -10 -6 0
1 10 32 0
1 -7 31 0
1 7 -33 0
1 -7 -16 0
1 -7 -13 0
1 -7 -12 0
1 7 -28 0
1 -7 -10 0
1 7 18 0
1 -7 23 0
1 -7 -32 0
1 29 8 0
1 -29 11 0
1 -29 15 0
1 29 26 0
1 29 -34 0
1 30 -8 0
1 30 -16 0
1 -30 -35 0
1 -30 -25 0
1 30 34 0
1 -36 -27 0
1 36 26 0
1 -27 -26 0
1 27 34 0
1 34 27 0
1 34 -13 0
1 -34 -25 0
1 34 37 0
1 -34 -38 0
1 -25 13 0
1 25 -36 0
1 26 27 0
1 -26 -35 0
1 -26 39 0
1 -26 -28 0
1 -26 -36 0
1 -26 -18 0
1 26 40 0
1 -26 -38 0
1 -26 -32 0
1 -35 27 0
1 -35 13 0
1 -35 -41 0
1 35 42 0
1 35 39 0
1 -35 36 0
1 35 32 0
1 43 -44 0
1 -43 -45 0
1 43 -1 0
1 45 46 0
1 45 -47 0
1 45 -48 0
1 -49 -44 0
1 -49 -50 0
1 49 51 0
1 -49 -52 0
1 50 -46 0
1 50 53 0
1 50 -49 0
1 44 54 0
1 -44 -19 0
1 -44 -55 0
1 -44 50 0
1 44 56 0
1 44 57 0
1 44 24 0
1 56 -50 0
1 -56 45 0
1 -56 -58 0
1 -56 -57 0
1 -56 -43 0
1 -46 -54 0
1 -46 59 0
1 -46 45 0
1 -46 48 0
1 -46 58 0
1 46 49 0
1 -46 -43 0
1 -48 54 0
1 48 60 0
1 -48 59 0
1 48 45 0
1 -48 61 0
1 24 -44 0
1 24 62 0
1 -24 -56 0
1 -24 23 0
1 24 -5 0
1 20 44 0
1 20 -63 0
1 20 62 0
1 -20 59 0
1 20 9 0
1 57 -63 0
1 57 -62 0
1 57 -64 0
1 -57 -9 0
1 57 -56 0
1 -57 53 0
1 57 18 0
1 57 65 0
1 -57 -66 0
1 -57 -5 0
1 19 44 0
1 -19 -60 0
1 -19 -9 0
1 -19 -53 0
1 -19 -67 0
1 19 66 0
1 -19 5 0
1 62 -68 0
1 62 -31 0
1 -62 -19 0
1 62 20 0
1 62 -57 0
1 62 24 0
1 -62 -49 0
1 -51 -68 0
1 -51 19 0
1 -51 69 0
1 -51 -57 0
1 -51 70 0
1 -51 24 0
1 51 49 0
1 -63 68 0
1 63 19 0
1 -63 20 0
1 63 71 0
1 -63 72 0
1 63 53 0
1 63 -49 0
1 53 -68 0
1 -53 73 0
1 -53 -19 0
1 53 -63 0
1 -53 20 0
1 53 72 0
1 53 57 0
1 -53 74 0
1 53 24 0
1 -53 49 0
1 15 62 0
1 -15 75 0
1 15 64 0
1 15 -9 0
1 15 -3 0
1 -15 29 0
1 -15 58 0
1 15 -51 0
1 15 -5 0
1 16 -62 0
1 16 -64 0
1 16 -9 0
1 16 3 0
1 -16 -10 0
1 -16 -51 0
1 -16 -66 0
1 -16 5 0
1 69 -62 0
1 69 21 0
1 69 -14 0
1 69 -10 0
1 -69 36 0
1 69 -51 0
1 -69 66 0
1 -69 -22 0
1 -31 -76 0
1 31 75 0
1 -31 -64 0
1 31 21 0
1 -31 -51 0
1 31 -66 0
1 31 22 0
1 64 31 0
1 64 16 0
1 64 19 0
1 -64 -77 0
1 -64 78 0
1 64 28 0
1 64 69 0
1 -64 15 0
1 -64 57 0
1 64 66 0
1 64 79 0
1 -66 16 0
1 66 -19 0
1 -66 -77 0
1 -66 39 0
1 -66 -15 0
1 66 80 0
1 66 32 0
1 -75 -19 0
1 -75 81 0
1 -75 -82 0
1 75 69 0
1 -75 -15 0
1 -75 -57 0
1 75 83 0
1 67 31 0
1 67 16 0
1 67 75 0
1 67 -77 0
1 -67 -82 0
1 67 -71 0
1 67 -69 0
1 67 57 0
1 -67 -83 0
1 -28 7 0
1 28 -8 0
1 28 -21 0
1 28 -14 0
1 28 11 0
1 -28 26 0
1 28 66 0
1 -28 22 0
1 28 32 0
1 -32 7 0
1 32 76 0
1 -32 10 0
1 32 26 0
1 32 22 0
1 -39 -84 0
1 -39 21 0
1 -39 -14 0
1 -39 -85 0
1 -39 86 0
1 39 66 0
1 -39 -79 0
1 79 33 0
1 -79 35 0
1 -79 14 0
1 -79 -86 0
1 79 -26 0
1 -79 -22 0
1 14 -76 0
1 -14 -3 0
1 14 -79 0
1 -76 87 0
1 76 -14 0
1 76 -69 0
1 -76 4 0
1 76 88 0
1 76 -79 0
1 76 32 0
1 -21 -31 0
1 21 89 0
1 -21 -90 0
1 21 77 0
1 -21 69 0
1 21 91 0
1 -21 92 0
1 21 22 0
1 21 -32 0
1 22 31 0
1 -22 -39 0
1 22 -69 0
1 22 93 0
1 22 32 0
1 -42 76 0
1 42 84 0
1 -42 14 0
1 42 85 0
1 -42 -86 0
1 42 -38 0
1 -38 -76 0
1 -38 -84 0
1 38 35 0
1 -38 -42 0
1 38 -86 0
1 38 -26 0
1 38 -80 0
1 -87 -76 0
1 -87 -41 0
1 87 88 0
1 87 -90 0
1 87 14 0
1 87 -86 0
1 87 37 0
1 88 76 0
1 88 -33 0
1 -88 -41 0
1 88 -94 0
1 -88 87 0
1 -88 14 0
1 88 -40 0
1 88 37 0
1 86 42 0
1 86 39 0
1 86 95 0
1 86 96 0
1 -86 -97 0
1 -84 -98 0
1 -84 99 0
1 84 -100 0
1 84 -42 0
1 84 101 0
1 -84 -38 0
1 84 -79 0
1 85 33 0
1 85 98 0
1 85 87 0
1 85 42 0
1 85 -39 0
1 -85 -10 0
1 85 101 0
1 -85 102 0
1 -85 -91 0
1 85 -88 0
1 85 38 0
1 -33 103 0
1 33 104 0
1 -33 -89 0
1 -33 87 0
1 -33 39 0
1 33 -101 0
1 33 85 0
1 33 79 0
1 105 94 0
1 105 89 0
1 -105 -37 0
1 97 84 0
1 -97 41 0
1 97 -105 0
1 97 -94 0
1 -97 -37 0
1 -100 -41 0
1 -100 94 0
1 -100 95 0
1 100 -40 0
1 95 100 0
1 -95 -94 0
1 -95 86 0
1 -95 -102 0
1 -95 37 0
1 37 -106 0
1 37 94 0
1 37 -87 0
1 -37 -97 0
1 -37 -88 0
1 94 -107 0
1 94 87 0
1 94 -108 0
1 -94 97 0
1 94 88 0
1 40 98 0
1 -40 108 0
1 -40 109 0
1 -40 -101 0
1 -40 -95 0
1 -40 -88 0
1 41 -110 0
1 -41 98 0
1 41 35 0
1 41 -87 0
1 -41 97 0
1 41 88 0
1 -111 112 0
1 47 113 0
1 -47 -114 0
1 -47 -112 0
1 -52 115 0
1 -52 116 0
1 52 -117 0
1 52 -118 0
1 52 -119 0
1 -116 -120 0
1 -116 50 0
1 -116 117 0
1 116 -114 0
1 116 -112 0
1 -112 59 0
1 112 -65 0
1 112 -52 0
1 -120 -121 0
1 120 116 0
1 120 47 0
1 -120 61 0
1 120 -111 0
1 -114 113 0
1 -114 -47 0
1 113 122 0
1 113 116 0
1 113 114 0
1 -61 -46 0
1 61 59 0
1 -61 -115 0
1 -61 -117 0
1 61 112 0
1 61 24 0
1 -61 119 0
1 59 -46 0
1 59 120 0
1 59 61 0
1 59 119 0
1 -65 123 0
1 -65 117 0
1 65 124 0
1 65 -48 0
1 -65 -57 0
1 -65 118 0
1 60 -112 0
1 60 117 0
1 60 -124 0
1 60 -118 0
1 60 -119 0
1 -60 -125 0
1 119 60 0
1 119 116 0
1 119 -126 0
1 -119 58 0
1 119 61 0
1 -119 127 0
1 117 -73 0
1 -117 -54 0
1 117 59 0
1 -117 116 0
1 117 -126 0
1 117 119 0
1 117 -61 0
1 117 52 0
1 -118 128 0
1 -118 -115 0
1 -118 -61 0
1 -118 -129 0
1 118 52 0
1 115 59 0
1 115 -130 0
1 -115 116 0
1 115 -118 0
1 -115 61 0
1 -58 123 0
1 58 63 0
1 -58 -131 0
1 -58 53 0
1 58 15 0
1 54 123 0
1 -54 -46 0
1 54 16 0
1 54 -44 0
1 54 -117 0
1 54 -58 0
1 72 -123 0
1 -72 -132 0
1 72 55 0
1 72 -63 0
1 -72 -131 0
1 72 -69 0
1 72 -133 0
1 72 -125 0
1 73 123 0
1 -73 -31 0
1 -73 55 0
1 -73 124 0
1 -73 -72 0
1 73 -53 0
1 73 -133 0
1 73 -119 0
1 -73 -125 0
1 123 68 0
1 123 -134 0
1 -123 -54 0
1 123 60 0
1 123 -71 0
1 -123 -58 0
1 -123 65 0
1 -131 73 0
1 -131 54 0
1 131 60 0
1 -131 -58 0
1 131 65 0
1 131 83 0
1 -125 -73 0
1 -125 135 0
1 125 124 0
1 125 72 0
1 125 -65 0
1 -125 -136 0
1 -124 128 0
1 -124 -60 0
1 -124 -137 0
1 -124 -138 0
1 124 65 0
1 -124 125 0
1 71 68 0
1 71 123 0
1 -71 -132 0
1 71 -75 0
1 71 28 0
1 71 -126 0
1 -71 -53 0
1 -71 51 0
1 -71 -67 0
1 -68 123 0
1 -68 132 0
1 68 55 0
1 -68 -71 0
1 68 -139 0
1 -68 -133 0
1 -68 -51 0
1 -68 67 0
1 -68 32 0
1 -82 140 0
1 82 75 0
1 82 -74 0
1 -82 83 0
1 83 132 0
1 -83 82 0
1 -83 133 0
1 -83 -70 0
1 83 79 0
1 -55 -141 0
1 -55 90 0
1 55 71 0
1 55 72 0
1 55 -133 0
1 -55 -142 0
1 55 -83 0
1 -133 -68 0
1 -133 90 0
1 -133 77 0
1 133 56 0
1 -133 -72 0
1 133 -143 0
1 133 -142 0
1 -132 -46 0
1 -132 73 0
1 132 144 0
1 132 -145 0
1 -132 -137 0
1 -132 82 0
1 132 139 0
1 -132 83 0
1 -139 -68 0
1 139 -132 0
1 139 -146 0
1 139 137 0
1 -139 -48 0
1 139 147 0
1 -139 148 0
1 139 -149 0
1 139 83 0
1 -77 -150 0
1 77 140 0
1 77 42 0
1 77 64 0
1 -77 -137 0
1 77 -21 0
1 -77 133 0
1 77 67 0
1 -77 66 0
1 -77 22 0
1 -80 -150 0
1 -80 75 0
1 80 -64 0
1 -80 -77 0
1 80 21 0
1 -80 -133 0
1 -80 74 0
1 -80 -67 0
1 -80 -149 0
1 -90 150 0
1 -90 -140 0
1 90 133 0
1 90 -74 0
1 -90 -70 0
1 90 92 0
1 -92 55 0
1 -92 81 0
1 -92 74 0
1 -92 70 0
1 -92 -148 0
1 -92 22 0
1 -140 70 0
1 -140 151 0
1 140 77 0
1 140 82 0
1 -140 152 0
1 -140 102 0
1 140 -91 0
1 140 -92 0
1 140 80 0
1 -70 -89 0
1 -70 -140 0
1 -70 90 0
1 70 -77 0
1 70 82 0
1 -70 -51 0
1 70 -153 0
1 -70 92 0
1 -70 83 0
1 -150 -151 0
1 -150 -154 0
1 -150 -146 0
1 150 -90 0
1 150 -82 0
1 -150 -152 0
1 -150 74 0
1 150 142 0
1 150 -80 0
1 -74 151 0
1 -74 -150 0
1 74 146 0
1 74 90 0
1 74 -77 0
1 74 -82 0
1 -74 53 0
1 74 -155 0
1 74 -142 0
1 74 -92 0
1 74 -80 0
1 -89 -33 0
1 89 -70 0
1 -89 -105 0
1 -89 81 0
1 -89 -78 0
1 -89 14 0
1 89 -91 0
1 -89 156 0
1 -89 157 0
1 89 -22 0
1 -91 33 0
1 -91 140 0
1 91 81 0
1 -91 78 0
1 91 -97 0
1 -104 158 0
1 -104 33 0
1 104 -159 0
1 104 85 0
1 -104 70 0
1 104 -156 0
1 104 157 0
1 -104 93 0
1 102 33 0
1 -102 104 0
1 -102 81 0
1 -102 78 0
1 102 159 0
1 -102 -95 0
1 -102 -70 0
1 -102 -157 0
1 78 160 0
1 -78 -110 0
1 -78 104 0
1 78 64 0
1 -78 161 0
1 78 101 0
1 -78 -92 0
1 -157 -110 0
1 157 -98 0
1 -157 90 0
1 -157 102 0
1 -157 91 0
1 -157 92 0
1 -157 66 0
1 81 162 0
1 81 -156 0
1 81 89 0
1 81 -90 0
1 81 163 0
1 81 161 0
1 -81 -164 0
1 -81 152 0
1 81 -102 0
1 81 -92 0
1 -156 104 0
1 156 89 0
1 156 90 0
1 156 164 0
1 156 -102 0
1 -156 165 0
1 98 -158 0
1 -98 84 0
1 -98 159 0
1 98 85 0
1 -98 -86 0
1 -98 -93 0
1 -101 -158 0
1 -101 33 0
1 101 78 0
1 -101 166 0
1 -101 -40 0
1 101 -157 0
1 -101 93 0
1 -110 162 0
1 -110 -99 0
1 110 -96 0
1 -110 -93 0
1 -109 158 0
1 109 110 0
1 109 99 0
1 -109 41 0
1 109 159 0
1 -109 167 0
1 -109 -157 0
1 -109 93 0
1 166 -110 0
1 -166 98 0
1 166 -104 0
1 166 168 0
1 -166 169 0
1 -166 -109 0
1 166 -101 0
1 -166 102 0
1 166 170 0
1 -158 104 0
1 158 -168 0
1 -158 169 0
1 158 166 0
1 158 -171 0
1 -158 -170 0
1 159 -110 0
1 159 -104 0
1 -159 172 0
1 -159 161 0
1 -159 102 0
1 -93 160 0
1 93 110 0
1 -93 -104 0
1 93 -161 0
1 93 -109 0
1 93 -22 0
1 93 -173 0
1 106 -160 0
1 106 -158 0
1 106 -41 0
1 -106 94 0
1 106 167 0
1 -106 40 0
1 108 -103 0
1 -108 -94 0
1 108 -166 0
1 108 167 0
1 108 -96 0
1 -108 -37 0
1 -170 158 0
1 -170 -99 0
1 -170 -167 0
1 -170 -96 0
1 170 -173 0
1 -169 -158 0
1 -169 99 0
1 169 -174 0
1 169 107 0
1 169 -172 0
1 169 -167 0
1 169 175 0
1 -169 -176 0
1 -96 106 0
1 -96 110 0
1 -96 -177 0
1 -96 -169 0
1 -96 108 0
1 96 -86 0
1 96 -178 0
1 96 170 0
1 -99 -106 0
1 99 110 0
1 99 -84 0
1 -99 179 0
1 99 -177 0
1 -99 -109 0
1 -99 96 0
1 -99 -178 0
1 -99 170 0
1 -167 110 0
1 167 103 0
1 -167 180 0
1 167 -169 0
1 167 108 0
1 -167 -109 0
1 -167 -85 0
1 -167 -181 0
1 103 -106 0
1 -103 -110 0
1 -103 33 0
1 -103 -180 0
1 103 -167 0
1 -103 181 0
1 103 171 0
1 -178 99 0
1 178 107 0
1 -178 177 0
1 178 171 0
1 177 -99 0
1 -177 -174 0
1 -177 -107 0
1 177 -176 0
1 177 -178 0
1 -182 99 0
1 -182 -174 0
1 -182 179 0
1 182 107 0
1 182 175 0
1 179 174 0
1 179 -107 0
1 -179 -96 0
1 -176 177 0
1 176 169 0
1 -176 -182 0
1 -176 178 0
1 176 -170 0
1 -107 -176 0
1 107 -179 0
1 -107 169 0
1 175 -174 0
1 175 -179 0
1 175 40 0
1 -175 -182 0
1 175 170 0
1 -174 177 0
1 -174 169 0
1 -174 175 0
1 -174 182 0
1 126 128 0
1 126 -115 0
1 126 -124 0
1 -126 -125 0
1 128 -122 0
1 128 -121 0
1 128 124 0
1 128 -183 0
1 128 119 0
1 -128 125 0
1 138 121 0
1 138 -184 0
1 138 127 0
1 138 125 0
1 -138 136 0
1 -136 130 0
1 -136 -124 0
1 136 138 0
1 -136 -184 0
1 -136 183 0
1 -136 129 0
1 -136 127 0
1 -183 -128 0
1 -183 -145 0
1 -183 126 0
1 183 -112 0
1 183 -149 0
1 -121 -128 0
1 -121 -120 0
1 -121 145 0
1 -121 137 0
1 -121 -148 0
1 121 -136 0
1 184 122 0
1 -184 126 0
1 -184 114 0
1 -184 -136 0
1 122 -128 0
1 -122 -113 0
1 122 -185 0
1 122 138 0
1 -122 184 0
1 137 -123 0
1 137 -124 0
1 137 129 0
1 -137 -127 0
1 -137 125 0
1 149 -123 0
1 -149 125 0
1 149 -132 0
1 -149 -121 0
1 -149 -124 0
1 149 -137 0
1 -149 -131 0
1 -149 139 0
1 -149 183 0
1 -149 129 0
1 -149 80 0
1 -145 -132 0
1 -145 130 0
1 -145 -186 0
1 145 -139 0
1 145 129 0
1 -145 183 0
1 145 -127 0
1 145 135 0
1 148 -134 0
1 148 -132 0
1 -148 145 0
1 148 186 0
1 -148 187 0
1 -148 -183 0
1 148 92 0
1 -148 -127 0
1 -127 -154 0
1 -127 146 0
1 127 -137 0
1 -127 155 0
1 -127 -149 0
1 -186 -188 0
1 186 154 0
1 186 117 0
1 186 145 0
1 186 -137 0
1 -186 -138 0
1 -186 155 0
1 -186 -148 0
1 -186 -149 0
1 -186 -136 0
1 -129 -188 0
1 129 137 0
1 129 189 0
1 -130 188 0
1 130 -115 0
1 -130 -145 0
1 -130 -137 0
1 130 138 0
1 -130 -148 0
1 -130 149 0
1 130 136 0
1 -146 -132 0
1 -146 -55 0
1 -146 150 0
1 146 -190 0
1 -146 187 0
1 146 139 0
1 146 -74 0
1 -146 135 0
1 -142 -134 0
1 142 -55 0
1 -142 150 0
1 142 186 0
1 -142 187 0
1 -142 139 0
1 142 74 0
1 -142 -127 0
1 154 134 0
1 -154 -144 0
1 154 141 0
1 -154 186 0
1 -154 190 0
1 154 -127 0
1 -155 134 0
1 -155 141 0
1 155 150 0
1 -155 -186 0
1 155 190 0
1 155 143 0
1 -155 127 0
1 155 -135 0
1 -134 191 0
1 134 -192 0
1 -134 151 0
1 -134 -146 0
1 -134 145 0
1 134 -187 0
1 134 -164 0
1 -134 155 0
1 -134 142 0
1 187 -134 0
1 -187 -191 0
1 187 162 0
1 -187 -151 0
1 187 -145 0
1 -187 -193 0
1 -187 -164 0
1 187 155 0
1 187 142 0
1 -135 194 0
1 -135 191 0
1 135 195 0
1 135 -146 0
1 -135 145 0
1 -135 -193 0
1 -135 189 0
1 -135 155 0
1 -135 -148 0
1 135 -125 0
1 190 -195 0
1 190 -146 0
1 190 -196 0
1 190 197 0
1 -190 142 0
1 190 135 0
1 -151 134 0
1 -151 98 0
1 151 144 0
1 151 -188 0
1 151 81 0
1 -151 187 0
1 -151 147 0
1 151 -152 0
1 151 143 0
1 -151 -70 0
1 152 134 0
1 152 -150 0
1 -152 81 0
1 152 147 0
1 152 -74 0
1 -162 110 0
1 162 -195 0
1 -162 81 0
1 -162 -187 0
1 -162 -164 0
1 -162 147 0
1 -162 -143 0
1 -162 198 0
1 -162 -156 0
1 164 134 0
1 -164 -162 0
1 164 144 0
1 164 199 0
1 164 -200 0
1 164 -187 0
1 164 -109 0
1 164 -197 0
1 164 143 0
1 -164 198 0
1 164 -153 0
1 141 -160 0
1 -141 162 0
1 141 -55 0
1 141 154 0
1 141 -172 0
1 141 152 0
1 141 -155 0
1 143 -162 0
1 143 141 0
1 143 155 0
1 143 173 0
1 144 201 0
1 -144 193 0
1 -144 -147 0
1 -144 152 0
1 -147 -191 0
1 147 151 0
1 -147 -154 0
1 -147 -152 0
1 -147 155 0
1 160 -141 0
1 160 199 0
1 160 -81 0
1 -160 78 0
1 -160 -198 0
1 -160 -153 0
1 160 -156 0
1 -160 157 0
1 160 -93 0
1 -161 -199 0
1 161 -200 0
1 161 78 0
1 161 -143 0
1 161 -153 0
1 -161 156 0
1 161 -93 0
1 173 -141 0
1 173 -163 0
1 -173 -172 0
1 -173 159 0
1 173 143 0
1 -173 198 0
1 -173 -153 0
1 -173 202 0
1 173 170 0
1 -172 -141 0
1 -172 -163 0
1 172 -169 0
1 -172 -203 0
1 -172 -159 0
1 172 198 0
1 172 -165 0
1 172 -202 0
1 200 140 0
1 200 180 0
1 200 -168 0
1 -200 -172 0
1 153 -160 0
1 -153 -162 0
1 153 -180 0
1 -153 -168 0
1 -153 164 0
1 153 -70 0
1 153 171 0
1 -153 -173 0
1 -199 160 0
1 199 162 0
1 -199 -204 0
1 -199 201 0
1 199 -161 0
1 -199 -164 0
1 -199 -205 0
1 -199 173 0
1 -198 160 0
1 198 199 0
1 -198 204 0
1 198 -161 0
1 -198 -164 0
1 -198 205 0
1 -198 -173 0
1 171 158 0
1 -171 -206 0
1 171 159 0
1 171 167 0
1 171 -153 0
1 -171 165 0
1 -171 202 0
1 168 177 0
1 -168 -163 0
1 -168 201 0
1 -168 167 0
1 -168 -153 0
1 -168 -165 0
1 181 180 0
1 181 163 0
1 -181 -206 0
1 -181 -167 0
1 -181 165 0
1 181 -205 0
1 -181 -202 0
1 180 -103 0
1 180 -206 0
1 -180 181 0
1 -180 -202 0
1 -206 180 0
1 -206 78 0
1 -206 172 0
1 206 202 0
1 206 -181 0
1 206 -171 0
1 -202 172 0
1 202 -206 0
1 -202 -181 0
1 -202 -171 0
1 -163 -168 0
1 163 -172 0
1 -163 -171 0
1 -165 172 0
1 165 -171 0
1 -165 173 0
1 -188 -207 0
1 -188 -186 0
1 188 208 0
1 -188 -129 0
1 -188 -127 0
1 -189 -185 0
1 189 -207 0
1 189 -186 0
1 -189 -190 0
1 -189 208 0
1 189 129 0
1 189 -127 0
1 195 185 0
1 -195 -209 0
1 195 -210 0
1 -195 197 0
1 -195 211 0
1 -195 -212 0
1 197 195 0
1 -197 209 0
1 197 -210 0
1 -197 -164 0
1 197 211 0
1 -197 -212 0
1 -213 214 0
1 213 188 0
1 213 197 0
1 213 -183 0
1 207 -214 0
1 -207 -193 0
1 207 197 0
1 -207 -189 0
1 -208 188 0
1 -208 -185 0
1 208 197 0
1 -208 184 0
1 -185 208 0
1 -185 197 0
1 -191 207 0
1 191 -209 0
1 191 190 0
1 -191 147 0
1 191 212 0
1 -193 -207 0
1 193 -190 0
1 -193 161 0
1 -193 -187 0
1 193 -147 0
1 193 213 0
1 193 211 0
1 -193 -212 0
1 -193 -135 0
1 -214 -192 0
1 -214 -144 0
1 -214 -207 0
1 -214 -209 0
1 -214 210 0
1 214 -203 0
1 -214 215 0
1 214 -213 0
1 -214 -211 0
1 203 214 0
1 -203 192 0
1 -203 -207 0
1 203 210 0
1 -203 172 0
1 -203 213 0
1 -212 -214 0
1 -212 201 0
1 212 203 0
1 210 -214 0
1 -210 -191 0
1 210 -204 0
1 210 203 0
1 -210 -193 0
1 -210 -197 0
1 -210 205 0
1 211 197 0
1 -211 129 0
1 -209 214 0
1 -209 191 0
1 209 -203 0
1 -209 -193 0
1 209 -197 0
1 -201 -192 0
1 -201 168 0
1 201 198 0
1 205 199 0
1 -205 -210 0
1 204 -194 0
1 204 192 0
1 -204 -196 0
1 192 -214 0
1 192 134 0
1 192 -203 0
1 192 205 0
1 -215 -214 0
1 -215 -192 0
1 215 204 0
1 -215 201 0
1 215 205 0
1 194 -201 0
1 194 -203 0
1 194 -196 0
1 -196 -204 0
1 196 201 0
1 -196 -205 0
